50
    94    77    77    29    96    84    93    50    85    98    94     9    24    79    89    72    91    24    51    95    83    73    22    25     7     4     6   100    92    40    75    47    78    40    65    87    22     7    79    27    97    82    86    69    91    50    18     3     9    32
     7     4     7     4     9     7     9     7     8    10     1     6     7     9    10     8     1     1    10     8     4     6     8     9     9     6     7     9    10     5     2     7     1    10     8     4     2     9     8     3     8     3     5     2    10     5     4     5     1     1
  2769  2571  1642  2379  2683  1504  3092  2644  1840  2436  2568  1982  1617  1784  2138  2050  3027  2099  1880  2282  2819  2150  1701  1805  2752  1906  2265  2242  2190  3143  1537  2601  2102  2150  2738  2087  2926  2615  2114  2004  1555  3069  2151  1547  1479  2751  2857  1470  2748  3093
